\* The_Optimization_Problem_yearly *\
Maximize
optimering_DKK: 752.51 x0 + 2726.73 x1 + 2951.69 x2 + 4174.3 x3
Subject To
Investering: 960000 x0 + 352640 x1 + 572400 x2 + 521400 x3 <= 2000000
Binaries
x0
x1
x2
x3
End
